Route #1: 4 27 52 46 34
Route #2: 45 29 5 48 30 2
Route #3: 6 33 16 49 24 3 51
Route #4: 63 23 56 41 64 42 43
Route #5: 1 22 62 28 61 21
Route #6: 47 36 60 20 37 15 57 13 54
Route #7: 17 40 9 39 12
Route #8: 44 32 50 18 55 25 31
Route #9: 58 10 38 11 53
Route #10: 8 35 19 59 14 7 26
Cost 825